NAME : RWPToy-10-0
COMMENT : Toy. 5 postmen. Max route 31304=21599.76s=6h.
TYPE : TSP
DIMENSION : 11
VEHICLES : 5
SCALE : 100000
DISTANCE : 21599.760000
EDGE_WEIGHT_TYPE : EXPLICIT
EDGE_WEIGHT_FORMAT : UPPER_ROW
EDGE_WEIGHT_SECTION
665.724120
2395.444850
1137.347427
255.755226
688.865061
1331.076369
694.855638
848.421146
1144.207214
1230.518213

2894.885209
1759.332308
918.029345
803.321068
1848.195103
799.469234
933.908050
1606.056991
1833.680963

1455.273822
2194.120307
2571.511331
1764.636266
2688.010584
2811.066405
1852.342153
1260.839397

885.207357
1551.520007
977.415857
1682.534916
1836.100424
902.639584
528.789253

669.762650
1258.405663
800.777560
954.343068
1071.536508
1051.597800

1924.631888
136.560319
290.125827
1737.762733
1717.910451

1930.622466
2084.187974
247.326888
547.284051

157.015508
1743.753311
1816.270745

1897.318819
1969.836253

651.867331

DEPOT_SECTION
1
-1
EOF
